(set-option :auto-config false)
(set-option :produce-unsat-cores false)
(set-option :smt.mbqi.max_iterations 10000000)
(set-option :smt.relevancy 0)
(define-fun e2 ((c0 (_ BitVec 64)) (c1 (_ BitVec 64))) (_ BitVec 64) (_ bv1024 64))
(define-fun e3 ((c0 (_ BitVec 64)) (c1 (_ BitVec 64))) Bool (bvult c0 (e2 c0 c1)))
(define-fun e4 ((c0 (_ BitVec 64)) (c1 (_ BitVec 64))) Bool (bvult c1 (e2 c0 c1)))
(define-fun e5 ((c0 (_ BitVec 64)) (c1 (_ BitVec 64))) Bool (and (e3 c0 c1) (e4 c0 c1)))
(define-fun e6 ((c0 (_ BitVec 64)) (c1 (_ BitVec 64))) Bool (not (e5 c0 c1)))
(declare-fun c7 () Bool)
(define-fun e8 ((c0 (_ BitVec 64)) (c1 (_ BitVec 64))) Bool (not c7))
(declare-fun c9 () (_ BitVec 64))
(define-fun e10 ((c0 (_ BitVec 64)) (c1 (_ BitVec 64))) Bool (bvult c9 (e2 c0 c1)))
(define-fun e11 ((c0 (_ BitVec 64)) (c1 (_ BitVec 64))) (_ BitVec 64) (_ bv0 64))
(declare-fun c12 ((_ BitVec 64)) (_ BitVec 64))
(define-fun e13 ((c0 (_ BitVec 64)) (c1 (_ BitVec 64))) (_ BitVec 64) (c12 c9))
(define-fun e14 ((c0 (_ BitVec 64)) (c1 (_ BitVec 64))) Bool (= (e11 c0 c1) (e13 c0 c1)))
(define-fun e15 ((c0 (_ BitVec 64)) (c1 (_ BitVec 64))) Bool (and (e10 c0 c1) (e14 c0 c1)))
(define-fun e16 ((c0 (_ BitVec 64)) (c1 (_ BitVec 64))) Bool (not (e15 c0 c1)))
(define-fun e17 ((c0 (_ BitVec 64)) (c1 (_ BitVec 64))) (_ BitVec 64) (_ bv1 64))
(define-fun e18 ((c0 (_ BitVec 64)) (c1 (_ BitVec 64))) Bool (= (e17 c0 c1) (e13 c0 c1)))
(define-fun e19 ((c0 (_ BitVec 64)) (c1 (_ BitVec 64))) Bool (and (e10 c0 c1) (e18 c0 c1)))
(declare-fun c20 ((_ BitVec 64) (_ BitVec 64)) (_ BitVec 64))
(define-fun e21 ((c0 (_ BitVec 64)) (c1 (_ BitVec 64))) (_ BitVec 64) (c20 c9 (e17 c0 c1)))
(define-fun e22 ((c0 (_ BitVec 64)) (c1 (_ BitVec 64))) Bool (= (e17 c0 c1) (e21 c0 c1)))
(define-fun e23 ((c0 (_ BitVec 64)) (c1 (_ BitVec 64))) Bool (not (e22 c0 c1)))
(define-fun e24 ((c0 (_ BitVec 64)) (c1 (_ BitVec 64))) Bool (and (e19 c0 c1) (e23 c0 c1)))
(define-fun e25 ((c0 (_ BitVec 64)) (c1 (_ BitVec 64))) Bool (not (e24 c0 c1)))
(define-fun e26 ((c0 (_ BitVec 64)) (c1 (_ BitVec 64))) (_ BitVec 64) (_ bv2 64))
(define-fun e27 ((c0 (_ BitVec 64)) (c1 (_ BitVec 64))) (_ BitVec 64) (c20 c9 (e26 c0 c1)))
(define-fun e28 ((c0 (_ BitVec 64)) (c1 (_ BitVec 64))) Bool (= (e26 c0 c1) (e27 c0 c1)))
(define-fun e29 ((c0 (_ BitVec 64)) (c1 (_ BitVec 64))) Bool (not (e28 c0 c1)))
(define-fun e30 ((c0 (_ BitVec 64)) (c1 (_ BitVec 64))) Bool (and (e19 c0 c1) (e29 c0 c1)))
(define-fun e31 ((c0 (_ BitVec 64)) (c1 (_ BitVec 64))) Bool (not (e30 c0 c1)))
(define-fun e32 ((c0 (_ BitVec 64)) (c1 (_ BitVec 64))) Bool (not (e19 c0 c1)))
(declare-fun c33 ((_ BitVec 64)) (_ BitVec 64))
(define-fun e34 ((c0 (_ BitVec 64)) (c1 (_ BitVec 64))) (_ BitVec 64) (c33 c9))
(define-fun e35 ((c0 (_ BitVec 64)) (c1 (_ BitVec 64))) (_ BitVec 64) (c20 (e34 c0 c1) (e26 c0 c1)))
(define-fun e36 ((c0 (_ BitVec 64)) (c1 (_ BitVec 64))) Bool (= (e26 c0 c1) (e35 c0 c1)))
(define-fun e37 ((c0 (_ BitVec 64)) (c1 (_ BitVec 64))) Bool (not (e36 c0 c1)))
(define-fun e38 ((c0 (_ BitVec 64)) (c1 (_ BitVec 64))) Bool (and (e32 c0 c1) (e37 c0 c1)))
(define-fun e39 ((c0 (_ BitVec 64)) (c1 (_ BitVec 64))) Bool (not (e38 c0 c1)))
(define-fun e40 ((c0 (_ BitVec 64)) (c1 (_ BitVec 64))) Bool (and (e8 c0 c1) (e10 c0 c1) (e16 c0 c1) (e25 c0 c1) (e31 c0 c1) (e39 c0 c1)))
(define-fun e41 ((c0 (_ BitVec 64)) (c1 (_ BitVec 64))) Bool (= c0 (e34 c0 c1)))
(define-fun e42 ((c0 (_ BitVec 64)) (c1 (_ BitVec 64))) Bool (= c9 c1))
(define-fun e43 ((c0 (_ BitVec 64)) (c1 (_ BitVec 64))) Bool (and (e41 c0 c1) (e42 c0 c1)))
(define-fun e44 ((c0 (_ BitVec 64)) (c1 (_ BitVec 64))) (_ BitVec 64) (bvneg (_ bv1 64)))
(declare-fun c45 ((_ BitVec 64)) (_ BitVec 64))
(define-fun e46 ((c0 (_ BitVec 64)) (c1 (_ BitVec 64))) (_ BitVec 64) (c45 c0))
(define-fun e47 ((c0 (_ BitVec 64)) (c1 (_ BitVec 64))) (_ BitVec 64) (bvadd (e44 c0 c1) (e46 c0 c1)))
(declare-fun c48 ((_ BitVec 64) (_ BitVec 64)) (_ BitVec 64))
(define-fun e49 ((c0 (_ BitVec 64)) (c1 (_ BitVec 64))) (_ BitVec 64) (c45 (e34 c0 c1)))
(define-fun e50 ((c0 (_ BitVec 64)) (c1 (_ BitVec 64))) (_ BitVec 64) (bvadd (e44 c0 c1) (e49 c0 c1)))
(define-fun e51 ((c0 (_ BitVec 64)) (c1 (_ BitVec 64))) (_ BitVec 64) (c48 (e34 c0 c1) (e50 c0 c1)))
(define-fun e52 ((c0 (_ BitVec 64)) (c1 (_ BitVec 64))) Bool (= c1 (e51 c0 c1)))
(define-fun e53 ((c0 (_ BitVec 64)) (c1 (_ BitVec 64))) Bool (and (e41 c0 c1) (e52 c0 c1)))
(declare-fun c54 ((_ BitVec 64) (_ BitVec 64)) (_ BitVec 64))
(define-fun e55 ((c0 (_ BitVec 64)) (c1 (_ BitVec 64))) (_ BitVec 64) (c54 (e34 c0 c1) c9))
(define-fun e56 ((c0 (_ BitVec 64)) (c1 (_ BitVec 64))) (_ BitVec 64) (c54 c0 c1))
(define-fun e57 ((c0 (_ BitVec 64)) (c1 (_ BitVec 64))) (_ BitVec 64) (ite (e53 c0 c1) (e55 c0 c1) (e56 c0 c1)))
(define-fun e58 ((c0 (_ BitVec 64)) (c1 (_ BitVec 64))) (_ BitVec 64) (ite (e43 c0 c1) (e47 c0 c1) (e57 c0 c1)))
(define-fun e59 ((c0 (_ BitVec 64)) (c1 (_ BitVec 64))) Bool (not (e10 c0 c1)))
(define-fun e60 ((c0 (_ BitVec 64)) (c1 (_ BitVec 64))) Bool (and (e31 c0 c1) (e32 c0 c1) (e37 c0 c1)))
(define-fun e61 ((c0 (_ BitVec 64)) (c1 (_ BitVec 64))) Bool (or (e30 c0 c1) (e60 c0 c1)))
(define-fun e62 ((c0 (_ BitVec 64)) (c1 (_ BitVec 64))) Bool (and (e25 c0 c1) (e61 c0 c1)))
(define-fun e63 ((c0 (_ BitVec 64)) (c1 (_ BitVec 64))) Bool (or (e24 c0 c1) (e62 c0 c1)))
(define-fun e64 ((c0 (_ BitVec 64)) (c1 (_ BitVec 64))) Bool (and (e16 c0 c1) (e63 c0 c1)))
(define-fun e65 ((c0 (_ BitVec 64)) (c1 (_ BitVec 64))) Bool (or (e15 c0 c1) (e64 c0 c1)))
(define-fun e66 ((c0 (_ BitVec 64)) (c1 (_ BitVec 64))) Bool (and (e10 c0 c1) (e65 c0 c1)))
(define-fun e67 ((c0 (_ BitVec 64)) (c1 (_ BitVec 64))) Bool (or (e59 c0 c1) (e66 c0 c1)))
(define-fun e68 ((c0 (_ BitVec 64)) (c1 (_ BitVec 64))) Bool (and (e8 c0 c1) (e67 c0 c1)))
(define-fun e69 ((c0 (_ BitVec 64)) (c1 (_ BitVec 64))) Bool (or c7 (e68 c0 c1)))
(define-fun e70 ((c0 (_ BitVec 64)) (c1 (_ BitVec 64))) (_ BitVec 64) (bvor (ite (e40 c0 c1) (e58 c0 c1) (_ bv0 64)) (ite (e69 c0 c1) (e56 c0 c1) (_ bv0 64))))
(define-fun e71 ((c0 (_ BitVec 64)) (c1 (_ BitVec 64))) Bool (bvult (e70 c0 c1) (e2 c0 c1)))
(define-fun e72 ((c0 (_ BitVec 64)) (c1 (_ BitVec 64))) Bool (or (e6 c0 c1) (e71 c0 c1)))
(define-fun e73 () Bool (forall ((c0 (_ BitVec 64)) (c1 (_ BitVec 64))) (e72 c0 c1)))
(define-fun e75 ((c0 (_ BitVec 64)) (c1 (_ BitVec 64)) (c74 (_ BitVec 64))) (_ BitVec 64) (_ bv1024 64))
(define-fun e76 ((c0 (_ BitVec 64)) (c1 (_ BitVec 64)) (c74 (_ BitVec 64))) Bool (bvult c0 (e75 c0 c1 c74)))
(define-fun e77 ((c0 (_ BitVec 64)) (c1 (_ BitVec 64)) (c74 (_ BitVec 64))) Bool (bvult c1 (e75 c0 c1 c74)))
(define-fun e78 ((c0 (_ BitVec 64)) (c1 (_ BitVec 64)) (c74 (_ BitVec 64))) Bool (bvult c74 (e75 c0 c1 c74)))
(define-fun e79 ((c0 (_ BitVec 64)) (c1 (_ BitVec 64)) (c74 (_ BitVec 64))) Bool (and (e76 c0 c1 c74) (e77 c0 c1 c74) (e78 c0 c1 c74)))
(define-fun e80 ((c0 (_ BitVec 64)) (c1 (_ BitVec 64)) (c74 (_ BitVec 64))) Bool (not (e79 c0 c1 c74)))
(define-fun e81 ((c0 (_ BitVec 64)) (c1 (_ BitVec 64)) (c74 (_ BitVec 64))) Bool (not c7))
(define-fun e82 ((c0 (_ BitVec 64)) (c1 (_ BitVec 64)) (c74 (_ BitVec 64))) Bool (bvult c9 (e75 c0 c1 c74)))
(define-fun e83 ((c0 (_ BitVec 64)) (c1 (_ BitVec 64)) (c74 (_ BitVec 64))) (_ BitVec 64) (_ bv0 64))
(define-fun e84 ((c0 (_ BitVec 64)) (c1 (_ BitVec 64)) (c74 (_ BitVec 64))) (_ BitVec 64) (c12 c9))
(define-fun e85 ((c0 (_ BitVec 64)) (c1 (_ BitVec 64)) (c74 (_ BitVec 64))) Bool (= (e83 c0 c1 c74) (e84 c0 c1 c74)))
(define-fun e86 ((c0 (_ BitVec 64)) (c1 (_ BitVec 64)) (c74 (_ BitVec 64))) Bool (and (e82 c0 c1 c74) (e85 c0 c1 c74)))
(define-fun e87 ((c0 (_ BitVec 64)) (c1 (_ BitVec 64)) (c74 (_ BitVec 64))) Bool (not (e86 c0 c1 c74)))
(define-fun e88 ((c0 (_ BitVec 64)) (c1 (_ BitVec 64)) (c74 (_ BitVec 64))) (_ BitVec 64) (_ bv1 64))
(define-fun e89 ((c0 (_ BitVec 64)) (c1 (_ BitVec 64)) (c74 (_ BitVec 64))) Bool (= (e88 c0 c1 c74) (e84 c0 c1 c74)))
(define-fun e90 ((c0 (_ BitVec 64)) (c1 (_ BitVec 64)) (c74 (_ BitVec 64))) Bool (and (e82 c0 c1 c74) (e89 c0 c1 c74)))
(define-fun e91 ((c0 (_ BitVec 64)) (c1 (_ BitVec 64)) (c74 (_ BitVec 64))) (_ BitVec 64) (c20 c9 (e88 c0 c1 c74)))
(define-fun e92 ((c0 (_ BitVec 64)) (c1 (_ BitVec 64)) (c74 (_ BitVec 64))) Bool (= (e88 c0 c1 c74) (e91 c0 c1 c74)))
(define-fun e93 ((c0 (_ BitVec 64)) (c1 (_ BitVec 64)) (c74 (_ BitVec 64))) Bool (not (e92 c0 c1 c74)))
(define-fun e94 ((c0 (_ BitVec 64)) (c1 (_ BitVec 64)) (c74 (_ BitVec 64))) Bool (and (e90 c0 c1 c74) (e93 c0 c1 c74)))
(define-fun e95 ((c0 (_ BitVec 64)) (c1 (_ BitVec 64)) (c74 (_ BitVec 64))) Bool (not (e94 c0 c1 c74)))
(define-fun e96 ((c0 (_ BitVec 64)) (c1 (_ BitVec 64)) (c74 (_ BitVec 64))) (_ BitVec 64) (_ bv2 64))
(define-fun e97 ((c0 (_ BitVec 64)) (c1 (_ BitVec 64)) (c74 (_ BitVec 64))) (_ BitVec 64) (c20 c9 (e96 c0 c1 c74)))
(define-fun e98 ((c0 (_ BitVec 64)) (c1 (_ BitVec 64)) (c74 (_ BitVec 64))) Bool (= (e96 c0 c1 c74) (e97 c0 c1 c74)))
(define-fun e99 ((c0 (_ BitVec 64)) (c1 (_ BitVec 64)) (c74 (_ BitVec 64))) Bool (not (e98 c0 c1 c74)))
(define-fun e100 ((c0 (_ BitVec 64)) (c1 (_ BitVec 64)) (c74 (_ BitVec 64))) Bool (and (e90 c0 c1 c74) (e99 c0 c1 c74)))
(define-fun e101 ((c0 (_ BitVec 64)) (c1 (_ BitVec 64)) (c74 (_ BitVec 64))) Bool (not (e100 c0 c1 c74)))
(define-fun e102 ((c0 (_ BitVec 64)) (c1 (_ BitVec 64)) (c74 (_ BitVec 64))) Bool (not (e90 c0 c1 c74)))
(define-fun e103 ((c0 (_ BitVec 64)) (c1 (_ BitVec 64)) (c74 (_ BitVec 64))) (_ BitVec 64) (c33 c9))
(define-fun e104 ((c0 (_ BitVec 64)) (c1 (_ BitVec 64)) (c74 (_ BitVec 64))) (_ BitVec 64) (c20 (e103 c0 c1 c74) (e96 c0 c1 c74)))
(define-fun e105 ((c0 (_ BitVec 64)) (c1 (_ BitVec 64)) (c74 (_ BitVec 64))) Bool (= (e96 c0 c1 c74) (e104 c0 c1 c74)))
(define-fun e106 ((c0 (_ BitVec 64)) (c1 (_ BitVec 64)) (c74 (_ BitVec 64))) Bool (not (e105 c0 c1 c74)))
(define-fun e107 ((c0 (_ BitVec 64)) (c1 (_ BitVec 64)) (c74 (_ BitVec 64))) Bool (and (e102 c0 c1 c74) (e106 c0 c1 c74)))
(define-fun e108 ((c0 (_ BitVec 64)) (c1 (_ BitVec 64)) (c74 (_ BitVec 64))) Bool (not (e107 c0 c1 c74)))
(define-fun e109 ((c0 (_ BitVec 64)) (c1 (_ BitVec 64)) (c74 (_ BitVec 64))) Bool (and (e81 c0 c1 c74) (e82 c0 c1 c74) (e87 c0 c1 c74) (e95 c0 c1 c74) (e101 c0 c1 c74) (e108 c0 c1 c74)))
(define-fun e110 ((c0 (_ BitVec 64)) (c1 (_ BitVec 64)) (c74 (_ BitVec 64))) Bool (= c0 (e103 c0 c1 c74)))
(define-fun e111 ((c0 (_ BitVec 64)) (c1 (_ BitVec 64)) (c74 (_ BitVec 64))) (_ BitVec 64) (bvneg (_ bv1 64)))
(define-fun e112 ((c0 (_ BitVec 64)) (c1 (_ BitVec 64)) (c74 (_ BitVec 64))) (_ BitVec 64) (c45 c0))
(define-fun e113 ((c0 (_ BitVec 64)) (c1 (_ BitVec 64)) (c74 (_ BitVec 64))) (_ BitVec 64) (bvadd (e111 c0 c1 c74) (e112 c0 c1 c74)))
(define-fun e114 ((c0 (_ BitVec 64)) (c1 (_ BitVec 64)) (c74 (_ BitVec 64))) Bool (= c74 (e113 c0 c1 c74)))
(define-fun e115 ((c0 (_ BitVec 64)) (c1 (_ BitVec 64)) (c74 (_ BitVec 64))) Bool (and (e110 c0 c1 c74) (e114 c0 c1 c74)))
(define-fun e116 ((c0 (_ BitVec 64)) (c1 (_ BitVec 64)) (c74 (_ BitVec 64))) (_ BitVec 64) (c54 (e103 c0 c1 c74) c9))
(define-fun e117 ((c0 (_ BitVec 64)) (c1 (_ BitVec 64)) (c74 (_ BitVec 64))) Bool (= c74 (e116 c0 c1 c74)))
(define-fun e118 ((c0 (_ BitVec 64)) (c1 (_ BitVec 64)) (c74 (_ BitVec 64))) Bool (and (e110 c0 c1 c74) (e117 c0 c1 c74)))
(define-fun e119 ((c0 (_ BitVec 64)) (c1 (_ BitVec 64)) (c74 (_ BitVec 64))) (_ BitVec 64) (c45 (e103 c0 c1 c74)))
(define-fun e120 ((c0 (_ BitVec 64)) (c1 (_ BitVec 64)) (c74 (_ BitVec 64))) (_ BitVec 64) (bvadd (e111 c0 c1 c74) (e119 c0 c1 c74)))
(define-fun e121 ((c0 (_ BitVec 64)) (c1 (_ BitVec 64)) (c74 (_ BitVec 64))) (_ BitVec 64) (c48 (e103 c0 c1 c74) (e120 c0 c1 c74)))
(define-fun e122 ((c0 (_ BitVec 64)) (c1 (_ BitVec 64)) (c74 (_ BitVec 64))) (_ BitVec 64) (c48 c0 c74))
(define-fun e123 ((c0 (_ BitVec 64)) (c1 (_ BitVec 64)) (c74 (_ BitVec 64))) (_ BitVec 64) (ite (e118 c0 c1 c74) (e121 c0 c1 c74) (e122 c0 c1 c74)))
(define-fun e124 ((c0 (_ BitVec 64)) (c1 (_ BitVec 64)) (c74 (_ BitVec 64))) (_ BitVec 64) (ite (e115 c0 c1 c74) c9 (e123 c0 c1 c74)))
(define-fun e125 ((c0 (_ BitVec 64)) (c1 (_ BitVec 64)) (c74 (_ BitVec 64))) Bool (not (e82 c0 c1 c74)))
(define-fun e126 ((c0 (_ BitVec 64)) (c1 (_ BitVec 64)) (c74 (_ BitVec 64))) Bool (and (e101 c0 c1 c74) (e102 c0 c1 c74) (e106 c0 c1 c74)))
(define-fun e127 ((c0 (_ BitVec 64)) (c1 (_ BitVec 64)) (c74 (_ BitVec 64))) Bool (or (e100 c0 c1 c74) (e126 c0 c1 c74)))
(define-fun e128 ((c0 (_ BitVec 64)) (c1 (_ BitVec 64)) (c74 (_ BitVec 64))) Bool (and (e95 c0 c1 c74) (e127 c0 c1 c74)))
(define-fun e129 ((c0 (_ BitVec 64)) (c1 (_ BitVec 64)) (c74 (_ BitVec 64))) Bool (or (e94 c0 c1 c74) (e128 c0 c1 c74)))
(define-fun e130 ((c0 (_ BitVec 64)) (c1 (_ BitVec 64)) (c74 (_ BitVec 64))) Bool (and (e87 c0 c1 c74) (e129 c0 c1 c74)))
(define-fun e131 ((c0 (_ BitVec 64)) (c1 (_ BitVec 64)) (c74 (_ BitVec 64))) Bool (or (e86 c0 c1 c74) (e130 c0 c1 c74)))
(define-fun e132 ((c0 (_ BitVec 64)) (c1 (_ BitVec 64)) (c74 (_ BitVec 64))) Bool (and (e82 c0 c1 c74) (e131 c0 c1 c74)))
(define-fun e133 ((c0 (_ BitVec 64)) (c1 (_ BitVec 64)) (c74 (_ BitVec 64))) Bool (or (e125 c0 c1 c74) (e132 c0 c1 c74)))
(define-fun e134 ((c0 (_ BitVec 64)) (c1 (_ BitVec 64)) (c74 (_ BitVec 64))) Bool (and (e81 c0 c1 c74) (e133 c0 c1 c74)))
(define-fun e135 ((c0 (_ BitVec 64)) (c1 (_ BitVec 64)) (c74 (_ BitVec 64))) Bool (or c7 (e134 c0 c1 c74)))
(define-fun e136 ((c0 (_ BitVec 64)) (c1 (_ BitVec 64)) (c74 (_ BitVec 64))) (_ BitVec 64) (bvor (ite (e109 c0 c1 c74) (e124 c0 c1 c74) (_ bv0 64)) (ite (e135 c0 c1 c74) (e122 c0 c1 c74) (_ bv0 64))))
(define-fun e137 ((c0 (_ BitVec 64)) (c1 (_ BitVec 64)) (c74 (_ BitVec 64))) Bool (= c9 (e136 c0 c1 c74)))
(define-fun e138 ((c0 (_ BitVec 64)) (c1 (_ BitVec 64)) (c74 (_ BitVec 64))) Bool (and (e110 c0 c1 c74) (e137 c0 c1 c74)))
(define-fun e139 ((c0 (_ BitVec 64)) (c1 (_ BitVec 64)) (c74 (_ BitVec 64))) Bool (= (e121 c0 c1 c74) (e136 c0 c1 c74)))
(define-fun e140 ((c0 (_ BitVec 64)) (c1 (_ BitVec 64)) (c74 (_ BitVec 64))) Bool (and (e110 c0 c1 c74) (e139 c0 c1 c74)))
(define-fun e141 ((c0 (_ BitVec 64)) (c1 (_ BitVec 64)) (c74 (_ BitVec 64))) (_ BitVec 64) (c54 c0 (e136 c0 c1 c74)))
(define-fun e142 ((c0 (_ BitVec 64)) (c1 (_ BitVec 64)) (c74 (_ BitVec 64))) (_ BitVec 64) (ite (e140 c0 c1 c74) (e116 c0 c1 c74) (e141 c0 c1 c74)))
(define-fun e143 ((c0 (_ BitVec 64)) (c1 (_ BitVec 64)) (c74 (_ BitVec 64))) (_ BitVec 64) (ite (e138 c0 c1 c74) (e113 c0 c1 c74) (e142 c0 c1 c74)))
(define-fun e144 ((c0 (_ BitVec 64)) (c1 (_ BitVec 64)) (c74 (_ BitVec 64))) (_ BitVec 64) (bvor (ite (e109 c0 c1 c74) (e143 c0 c1 c74) (_ bv0 64)) (ite (e135 c0 c1 c74) (e141 c0 c1 c74) (_ bv0 64))))
(define-fun e145 ((c0 (_ BitVec 64)) (c1 (_ BitVec 64)) (c74 (_ BitVec 64))) Bool (= c74 (e144 c0 c1 c74)))
(define-fun e146 ((c0 (_ BitVec 64)) (c1 (_ BitVec 64)) (c74 (_ BitVec 64))) Bool (= c9 c1))
(define-fun e147 ((c0 (_ BitVec 64)) (c1 (_ BitVec 64)) (c74 (_ BitVec 64))) Bool (and (e110 c0 c1 c74) (e146 c0 c1 c74)))
(define-fun e148 ((c0 (_ BitVec 64)) (c1 (_ BitVec 64)) (c74 (_ BitVec 64))) Bool (= c1 (e121 c0 c1 c74)))
(define-fun e149 ((c0 (_ BitVec 64)) (c1 (_ BitVec 64)) (c74 (_ BitVec 64))) Bool (and (e110 c0 c1 c74) (e148 c0 c1 c74)))
(define-fun e150 ((c0 (_ BitVec 64)) (c1 (_ BitVec 64)) (c74 (_ BitVec 64))) (_ BitVec 64) (c54 c0 c1))
(define-fun e151 ((c0 (_ BitVec 64)) (c1 (_ BitVec 64)) (c74 (_ BitVec 64))) (_ BitVec 64) (ite (e149 c0 c1 c74) (e116 c0 c1 c74) (e150 c0 c1 c74)))
(define-fun e152 ((c0 (_ BitVec 64)) (c1 (_ BitVec 64)) (c74 (_ BitVec 64))) (_ BitVec 64) (ite (e147 c0 c1 c74) (e113 c0 c1 c74) (e151 c0 c1 c74)))
(define-fun e153 ((c0 (_ BitVec 64)) (c1 (_ BitVec 64)) (c74 (_ BitVec 64))) (_ BitVec 64) (bvor (ite (e109 c0 c1 c74) (e152 c0 c1 c74) (_ bv0 64)) (ite (e135 c0 c1 c74) (e150 c0 c1 c74) (_ bv0 64))))
(define-fun e154 ((c0 (_ BitVec 64)) (c1 (_ BitVec 64)) (c74 (_ BitVec 64))) Bool (= (e113 c0 c1 c74) (e153 c0 c1 c74)))
(define-fun e155 ((c0 (_ BitVec 64)) (c1 (_ BitVec 64)) (c74 (_ BitVec 64))) Bool (and (e110 c0 c1 c74) (e154 c0 c1 c74)))
(define-fun e156 ((c0 (_ BitVec 64)) (c1 (_ BitVec 64)) (c74 (_ BitVec 64))) Bool (= (e116 c0 c1 c74) (e153 c0 c1 c74)))
(define-fun e157 ((c0 (_ BitVec 64)) (c1 (_ BitVec 64)) (c74 (_ BitVec 64))) Bool (and (e110 c0 c1 c74) (e156 c0 c1 c74)))
(define-fun e158 ((c0 (_ BitVec 64)) (c1 (_ BitVec 64)) (c74 (_ BitVec 64))) (_ BitVec 64) (c48 c0 (e153 c0 c1 c74)))
(define-fun e159 ((c0 (_ BitVec 64)) (c1 (_ BitVec 64)) (c74 (_ BitVec 64))) (_ BitVec 64) (ite (e157 c0 c1 c74) (e121 c0 c1 c74) (e158 c0 c1 c74)))
(define-fun e160 ((c0 (_ BitVec 64)) (c1 (_ BitVec 64)) (c74 (_ BitVec 64))) (_ BitVec 64) (ite (e155 c0 c1 c74) c9 (e159 c0 c1 c74)))
(define-fun e161 ((c0 (_ BitVec 64)) (c1 (_ BitVec 64)) (c74 (_ BitVec 64))) (_ BitVec 64) (bvor (ite (e109 c0 c1 c74) (e160 c0 c1 c74) (_ bv0 64)) (ite (e135 c0 c1 c74) (e158 c0 c1 c74) (_ bv0 64))))
(define-fun e162 ((c0 (_ BitVec 64)) (c1 (_ BitVec 64)) (c74 (_ BitVec 64))) Bool (= c1 (e161 c0 c1 c74)))
(define-fun e163 ((c0 (_ BitVec 64)) (c1 (_ BitVec 64)) (c74 (_ BitVec 64))) Bool (and (e145 c0 c1 c74) (e162 c0 c1 c74)))
(define-fun e164 ((c0 (_ BitVec 64)) (c1 (_ BitVec 64)) (c74 (_ BitVec 64))) Bool (or (e80 c0 c1 c74) (e163 c0 c1 c74)))
(define-fun e165 () Bool (forall ((c0 (_ BitVec 64)) (c1 (_ BitVec 64)) (c74 (_ BitVec 64))) (e164 c0 c1 c74)))
(define-fun e166 ((c0 (_ BitVec 64))) (_ BitVec 64) (_ bv0 64))
(define-fun e167 ((c0 (_ BitVec 64))) Bool (not c7))
(define-fun e168 ((c0 (_ BitVec 64))) (_ BitVec 64) (_ bv1024 64))
(define-fun e169 ((c0 (_ BitVec 64))) Bool (bvult c9 (e168 c0)))
(define-fun e170 ((c0 (_ BitVec 64))) (_ BitVec 64) (c12 c9))
(define-fun e171 ((c0 (_ BitVec 64))) Bool (= (e166 c0) (e170 c0)))
(define-fun e172 ((c0 (_ BitVec 64))) Bool (and (e169 c0) (e171 c0)))
(define-fun e173 ((c0 (_ BitVec 64))) Bool (not (e172 c0)))
(define-fun e174 ((c0 (_ BitVec 64))) (_ BitVec 64) (_ bv1 64))
(define-fun e175 ((c0 (_ BitVec 64))) Bool (= (e174 c0) (e170 c0)))
(define-fun e176 ((c0 (_ BitVec 64))) Bool (and (e169 c0) (e175 c0)))
(define-fun e177 ((c0 (_ BitVec 64))) (_ BitVec 64) (c20 c9 (e174 c0)))
(define-fun e178 ((c0 (_ BitVec 64))) Bool (= (e174 c0) (e177 c0)))
(define-fun e179 ((c0 (_ BitVec 64))) Bool (not (e178 c0)))
(define-fun e180 ((c0 (_ BitVec 64))) Bool (and (e176 c0) (e179 c0)))
(define-fun e181 ((c0 (_ BitVec 64))) Bool (not (e180 c0)))
(define-fun e182 ((c0 (_ BitVec 64))) (_ BitVec 64) (_ bv2 64))
(define-fun e183 ((c0 (_ BitVec 64))) (_ BitVec 64) (c20 c9 (e182 c0)))
(define-fun e184 ((c0 (_ BitVec 64))) Bool (= (e182 c0) (e183 c0)))
(define-fun e185 ((c0 (_ BitVec 64))) Bool (not (e184 c0)))
(define-fun e186 ((c0 (_ BitVec 64))) Bool (and (e176 c0) (e185 c0)))
(define-fun e187 ((c0 (_ BitVec 64))) Bool (not (e186 c0)))
(define-fun e188 ((c0 (_ BitVec 64))) Bool (not (e176 c0)))
(define-fun e189 ((c0 (_ BitVec 64))) (_ BitVec 64) (c33 c9))
(define-fun e190 ((c0 (_ BitVec 64))) (_ BitVec 64) (c20 (e189 c0) (e182 c0)))
(define-fun e191 ((c0 (_ BitVec 64))) Bool (= (e182 c0) (e190 c0)))
(define-fun e192 ((c0 (_ BitVec 64))) Bool (not (e191 c0)))
(define-fun e193 ((c0 (_ BitVec 64))) Bool (and (e188 c0) (e192 c0)))
(define-fun e194 ((c0 (_ BitVec 64))) Bool (not (e193 c0)))
(define-fun e195 ((c0 (_ BitVec 64))) Bool (and (e167 c0) (e169 c0) (e173 c0) (e181 c0) (e187 c0) (e194 c0)))
(define-fun e196 ((c0 (_ BitVec 64))) Bool (= c0 (e189 c0)))
(define-fun e197 ((c0 (_ BitVec 64))) Bool (= c9 c0))
(define-fun e198 ((c0 (_ BitVec 64))) Bool (and (e196 c0) (e197 c0)))
(define-fun e199 ((c0 (_ BitVec 64))) (_ BitVec 64) (bvneg (_ bv1 64)))
(define-fun e200 ((c0 (_ BitVec 64))) (_ BitVec 64) (c45 c0))
(define-fun e201 ((c0 (_ BitVec 64))) (_ BitVec 64) (bvadd (e199 c0) (e200 c0)))
(define-fun e202 ((c0 (_ BitVec 64))) (_ BitVec 64) (c45 (e189 c0)))
(define-fun e203 ((c0 (_ BitVec 64))) (_ BitVec 64) (bvadd (e199 c0) (e202 c0)))
(define-fun e204 ((c0 (_ BitVec 64))) (_ BitVec 64) (c48 (e189 c0) (e203 c0)))
(define-fun e205 ((c0 (_ BitVec 64))) Bool (= c0 (e204 c0)))
(define-fun e206 ((c0 (_ BitVec 64))) Bool (and (e196 c0) (e205 c0)))
(define-fun e207 ((c0 (_ BitVec 64))) (_ BitVec 64) (c54 (e189 c0) c9))
(define-fun e208 ((c0 (_ BitVec 64))) (_ BitVec 64) (c54 c0 c0))
(define-fun e209 ((c0 (_ BitVec 64))) (_ BitVec 64) (ite (e206 c0) (e207 c0) (e208 c0)))
(define-fun e210 ((c0 (_ BitVec 64))) (_ BitVec 64) (ite (e198 c0) (e201 c0) (e209 c0)))
(define-fun e211 ((c0 (_ BitVec 64))) Bool (not (e169 c0)))
(define-fun e212 ((c0 (_ BitVec 64))) Bool (and (e187 c0) (e188 c0) (e192 c0)))
(define-fun e213 ((c0 (_ BitVec 64))) Bool (or (e186 c0) (e212 c0)))
(define-fun e214 ((c0 (_ BitVec 64))) Bool (and (e181 c0) (e213 c0)))
(define-fun e215 ((c0 (_ BitVec 64))) Bool (or (e180 c0) (e214 c0)))
(define-fun e216 ((c0 (_ BitVec 64))) Bool (and (e173 c0) (e215 c0)))
(define-fun e217 ((c0 (_ BitVec 64))) Bool (or (e172 c0) (e216 c0)))
(define-fun e218 ((c0 (_ BitVec 64))) Bool (and (e169 c0) (e217 c0)))
(define-fun e219 ((c0 (_ BitVec 64))) Bool (or (e211 c0) (e218 c0)))
(define-fun e220 ((c0 (_ BitVec 64))) Bool (and (e167 c0) (e219 c0)))
(define-fun e221 ((c0 (_ BitVec 64))) Bool (or c7 (e220 c0)))
(define-fun e222 ((c0 (_ BitVec 64))) (_ BitVec 64) (bvor (ite (e195 c0) (e210 c0) (_ bv0 64)) (ite (e221 c0) (e208 c0) (_ bv0 64))))
(define-fun e223 ((c0 (_ BitVec 64))) Bool (= (e166 c0) (e222 c0)))
(define-fun e224 ((c0 (_ BitVec 64))) Bool (= (e166 c0) (e201 c0)))
(define-fun e225 ((c0 (_ BitVec 64))) Bool (and (e196 c0) (e224 c0)))
(define-fun e226 ((c0 (_ BitVec 64))) Bool (= (e166 c0) (e207 c0)))
(define-fun e227 ((c0 (_ BitVec 64))) Bool (and (e196 c0) (e226 c0)))
(define-fun e228 ((c0 (_ BitVec 64))) (_ BitVec 64) (c48 c0 (e166 c0)))
(define-fun e229 ((c0 (_ BitVec 64))) (_ BitVec 64) (ite (e227 c0) (e204 c0) (e228 c0)))
(define-fun e230 ((c0 (_ BitVec 64))) (_ BitVec 64) (ite (e225 c0) c9 (e229 c0)))
(define-fun e231 ((c0 (_ BitVec 64))) (_ BitVec 64) (bvor (ite (e195 c0) (e230 c0) (_ bv0 64)) (ite (e221 c0) (e228 c0) (_ bv0 64))))
(define-fun e232 ((c0 (_ BitVec 64))) Bool (= c0 (e231 c0)))
(define-fun e233 ((c0 (_ BitVec 64))) Bool (and (e223 c0) (e232 c0)))
(define-fun e234 ((c0 (_ BitVec 64))) Bool (bvult c0 (e168 c0)))
(define-fun e235 ((c0 (_ BitVec 64))) (_ BitVec 64) (c33 c0))
(define-fun e236 ((c0 (_ BitVec 64))) (_ BitVec 64) (ite (e197 c0) (e199 c0) (e235 c0)))
(define-fun e237 ((c0 (_ BitVec 64))) (_ BitVec 64) (bvor (ite (e195 c0) (e236 c0) (_ bv0 64)) (ite (e221 c0) (e235 c0) (_ bv0 64))))
(define-fun e238 ((c0 (_ BitVec 64))) Bool (= c0 (e237 c0)))
(define-fun e239 ((c0 (_ BitVec 64))) (_ BitVec 64) (c12 c0))
(define-fun e240 ((c0 (_ BitVec 64))) (_ BitVec 64) (ite (e197 c0) (e166 c0) (e239 c0)))
(define-fun e241 ((c0 (_ BitVec 64))) (_ BitVec 64) (bvor (ite (e195 c0) (e240 c0) (_ bv0 64)) (ite (e221 c0) (e239 c0) (_ bv0 64))))
(define-fun e242 ((c0 (_ BitVec 64))) Bool (= (e166 c0) (e241 c0)))
(define-fun e243 ((c0 (_ BitVec 64))) Bool (and (e234 c0) (e242 c0)))
(define-fun e244 ((c0 (_ BitVec 64))) Bool (not (e243 c0)))
(define-fun e245 ((c0 (_ BitVec 64))) Bool (and (e238 c0) (e244 c0)))
(define-fun e246 ((c0 (_ BitVec 64))) Bool (and (e234 c0) (e245 c0)))
(define-fun e247 ((c0 (_ BitVec 64))) Bool (not (e246 c0)))
(define-fun e248 ((c0 (_ BitVec 64))) Bool (or (e233 c0) (e247 c0)))
(define-fun e249 () Bool (forall ((c0 (_ BitVec 64))) (e248 c0)))
(define-fun e250 ((c0 (_ BitVec 64)) (c1 (_ BitVec 64))) (_ BitVec 64) (c33 c1))
(define-fun e251 ((c0 (_ BitVec 64)) (c1 (_ BitVec 64))) (_ BitVec 64) (ite (e42 c0 c1) (e44 c0 c1) (e250 c0 c1)))
(define-fun e252 ((c0 (_ BitVec 64)) (c1 (_ BitVec 64))) (_ BitVec 64) (bvor (ite (e40 c0 c1) (e251 c0 c1) (_ bv0 64)) (ite (e69 c0 c1) (e250 c0 c1) (_ bv0 64))))
(define-fun e253 ((c0 (_ BitVec 64)) (c1 (_ BitVec 64))) Bool (= c0 (e252 c0 c1)))
(define-fun e254 ((c0 (_ BitVec 64)) (c1 (_ BitVec 64))) (_ BitVec 64) (c12 c1))
(define-fun e255 ((c0 (_ BitVec 64)) (c1 (_ BitVec 64))) (_ BitVec 64) (ite (e42 c0 c1) (e11 c0 c1) (e254 c0 c1)))
(define-fun e256 ((c0 (_ BitVec 64)) (c1 (_ BitVec 64))) (_ BitVec 64) (bvor (ite (e40 c0 c1) (e255 c0 c1) (_ bv0 64)) (ite (e69 c0 c1) (e254 c0 c1) (_ bv0 64))))
(define-fun e257 ((c0 (_ BitVec 64)) (c1 (_ BitVec 64))) Bool (= (e11 c0 c1) (e256 c0 c1)))
(define-fun e258 ((c0 (_ BitVec 64)) (c1 (_ BitVec 64))) Bool (and (e4 c0 c1) (e257 c0 c1)))
(define-fun e259 ((c0 (_ BitVec 64)) (c1 (_ BitVec 64))) Bool (not (e258 c0 c1)))
(define-fun e260 ((c0 (_ BitVec 64)) (c1 (_ BitVec 64))) Bool (and (e253 c0 c1) (e259 c0 c1)))
(define-fun e261 ((c0 (_ BitVec 64)) (c1 (_ BitVec 64))) (_ BitVec 64) (ite (e41 c0 c1) (e47 c0 c1) (e46 c0 c1)))
(define-fun e262 ((c0 (_ BitVec 64)) (c1 (_ BitVec 64))) (_ BitVec 64) (bvor (ite (e40 c0 c1) (e261 c0 c1) (_ bv0 64)) (ite (e69 c0 c1) (e46 c0 c1) (_ bv0 64))))
(define-fun e263 ((c0 (_ BitVec 64)) (c1 (_ BitVec 64))) Bool (bvult (e70 c0 c1) (e262 c0 c1)))
(define-fun e264 ((c0 (_ BitVec 64)) (c1 (_ BitVec 64))) Bool (and (=> (e260 c0 c1) (e263 c0 c1)) (=> (e263 c0 c1) (e260 c0 c1))))
(define-fun e265 ((c0 (_ BitVec 64)) (c1 (_ BitVec 64))) Bool (or (e6 c0 c1) (e264 c0 c1)))
(define-fun e266 () Bool (forall ((c0 (_ BitVec 64)) (c1 (_ BitVec 64))) (e265 c0 c1)))
(define-fun e267 ((c0 (_ BitVec 64))) Bool (not (e234 c0)))
(define-fun e268 ((c0 (_ BitVec 64))) (_ BitVec 64) (ite (e196 c0) (e201 c0) (e200 c0)))
(define-fun e269 ((c0 (_ BitVec 64))) (_ BitVec 64) (bvor (ite (e195 c0) (e268 c0) (_ bv0 64)) (ite (e221 c0) (e200 c0) (_ bv0 64))))
(define-fun e270 ((c0 (_ BitVec 64))) Bool (bvule (e269 c0) (e168 c0)))
(define-fun e271 ((c0 (_ BitVec 64))) Bool (or (e267 c0) (e270 c0)))
(define-fun e272 () Bool (forall ((c0 (_ BitVec 64))) (e271 c0)))
(define-fun e273 () Bool (and e73 e165 e249 e266 e272))
(define-fun e275 ((c274 (_ BitVec 64))) (_ BitVec 64) (c33 c274))
(define-fun e276 ((c274 (_ BitVec 64))) Bool (= c274 (e275 c274)))
(define-fun e277 ((c274 (_ BitVec 64))) (_ BitVec 64) (_ bv1024 64))
(define-fun e278 ((c274 (_ BitVec 64))) Bool (bvult c274 (e277 c274)))
(define-fun e279 ((c274 (_ BitVec 64))) (_ BitVec 64) (_ bv1 64))
(define-fun e280 ((c274 (_ BitVec 64))) (_ BitVec 64) (c12 c274))
(define-fun e281 ((c274 (_ BitVec 64))) Bool (= (e279 c274) (e280 c274)))
(define-fun e282 ((c274 (_ BitVec 64))) Bool (and (e278 c274) (e281 c274)))
(define-fun e283 ((c274 (_ BitVec 64))) Bool (not (e282 c274)))
(define-fun e284 ((c274 (_ BitVec 64))) Bool (or (e276 c274) (e283 c274)))
(define-fun e285 () Bool (forall ((c274 (_ BitVec 64))) (e284 c274)))
(define-fun e286 ((c274 (_ BitVec 64))) Bool (bvult (e275 c274) (e277 c274)))
(define-fun e287 ((c274 (_ BitVec 64))) (_ BitVec 64) (_ bv0 64))
(define-fun e288 ((c274 (_ BitVec 64))) Bool (= (e287 c274) (e280 c274)))
(define-fun e289 ((c274 (_ BitVec 64))) Bool (not (e288 c274)))
(define-fun e290 ((c274 (_ BitVec 64))) Bool (and (e278 c274) (e289 c274)))
(define-fun e291 ((c274 (_ BitVec 64))) Bool (not (e290 c274)))
(define-fun e292 ((c274 (_ BitVec 64))) Bool (or (e286 c274) (e291 c274)))
(define-fun e293 () Bool (forall ((c274 (_ BitVec 64))) (e292 c274)))
(declare-fun c294 () (_ BitVec 64))
(define-fun e295 () (_ BitVec 64) (_ bv1024 64))
(define-fun e296 () Bool (bvult c294 e295))
(define-fun e297 () (_ BitVec 64) (_ bv2 64))
(define-fun e298 () (_ BitVec 64) (c12 c294))
(define-fun e299 () Bool (= e297 e298))
(define-fun e300 () Bool (and e296 e299))
(define-fun e301 () Bool (not c7))
(define-fun e302 () Bool (or e300 e301))
(define-fun e303 ((c274 (_ BitVec 64))) (_ BitVec 64) (c45 c274))
(define-fun e304 ((c274 (_ BitVec 64))) Bool (= (e287 c274) (e303 c274)))
(define-fun e305 ((c274 (_ BitVec 64))) Bool (and (e278 c274) (e283 c274)))
(define-fun e306 ((c274 (_ BitVec 64))) Bool (not (e305 c274)))
(define-fun e307 ((c274 (_ BitVec 64))) Bool (or (e304 c274) (e306 c274)))
(define-fun e308 () Bool (forall ((c274 (_ BitVec 64))) (e307 c274)))
(define-fun e309 ((c274 (_ BitVec 64))) (_ BitVec 64) (c20 c274 (e279 c274)))
(define-fun e310 ((c274 (_ BitVec 64))) Bool (= (e303 c274) (e309 c274)))
(define-fun e311 ((c274 (_ BitVec 64))) Bool (or (e283 c274) (e310 c274)))
(define-fun e312 () Bool (forall ((c274 (_ BitVec 64))) (e311 c274)))
(define-fun e313 ((c0 (_ BitVec 64)) (c1 (_ BitVec 64))) Bool (bvult (e56 c0 c1) (e2 c0 c1)))
(define-fun e314 ((c0 (_ BitVec 64)) (c1 (_ BitVec 64))) Bool (or (e313 c0 c1) (e6 c0 c1)))
(define-fun e315 () Bool (forall ((c0 (_ BitVec 64)) (c1 (_ BitVec 64))) (e314 c0 c1)))
(define-fun e316 ((c0 (_ BitVec 64)) (c1 (_ BitVec 64)) (c74 (_ BitVec 64))) (_ BitVec 64) (c54 c0 (e122 c0 c1 c74)))
(define-fun e317 ((c0 (_ BitVec 64)) (c1 (_ BitVec 64)) (c74 (_ BitVec 64))) Bool (= c74 (e316 c0 c1 c74)))
(define-fun e318 ((c0 (_ BitVec 64)) (c1 (_ BitVec 64)) (c74 (_ BitVec 64))) (_ BitVec 64) (c48 c0 (e150 c0 c1 c74)))
(define-fun e319 ((c0 (_ BitVec 64)) (c1 (_ BitVec 64)) (c74 (_ BitVec 64))) Bool (= c1 (e318 c0 c1 c74)))
(define-fun e320 ((c0 (_ BitVec 64)) (c1 (_ BitVec 64)) (c74 (_ BitVec 64))) Bool (and (e317 c0 c1 c74) (e319 c0 c1 c74)))
(define-fun e321 ((c0 (_ BitVec 64)) (c1 (_ BitVec 64)) (c74 (_ BitVec 64))) Bool (or (e320 c0 c1 c74) (e80 c0 c1 c74)))
(define-fun e322 () Bool (forall ((c0 (_ BitVec 64)) (c1 (_ BitVec 64)) (c74 (_ BitVec 64))) (e321 c0 c1 c74)))
(define-fun e323 ((c0 (_ BitVec 64))) Bool (= (e166 c0) (e208 c0)))
(define-fun e324 ((c0 (_ BitVec 64))) Bool (= c0 (e228 c0)))
(define-fun e325 ((c0 (_ BitVec 64))) Bool (and (e323 c0) (e324 c0)))
(define-fun e326 ((c0 (_ BitVec 64))) Bool (= c0 (e235 c0)))
(define-fun e327 ((c0 (_ BitVec 64))) Bool (= (e166 c0) (e239 c0)))
(define-fun e328 ((c0 (_ BitVec 64))) Bool (and (e234 c0) (e327 c0)))
(define-fun e329 ((c0 (_ BitVec 64))) Bool (not (e328 c0)))
(define-fun e330 ((c0 (_ BitVec 64))) Bool (and (e326 c0) (e329 c0)))
(define-fun e331 ((c0 (_ BitVec 64))) Bool (and (e234 c0) (e330 c0)))
(define-fun e332 ((c0 (_ BitVec 64))) Bool (not (e331 c0)))
(define-fun e333 ((c0 (_ BitVec 64))) Bool (or (e325 c0) (e332 c0)))
(define-fun e334 () Bool (forall ((c0 (_ BitVec 64))) (e333 c0)))
(define-fun e335 ((c0 (_ BitVec 64)) (c1 (_ BitVec 64))) Bool (= c0 (e250 c0 c1)))
(define-fun e336 ((c0 (_ BitVec 64)) (c1 (_ BitVec 64))) Bool (= (e11 c0 c1) (e254 c0 c1)))
(define-fun e337 ((c0 (_ BitVec 64)) (c1 (_ BitVec 64))) Bool (and (e4 c0 c1) (e336 c0 c1)))
(define-fun e338 ((c0 (_ BitVec 64)) (c1 (_ BitVec 64))) Bool (not (e337 c0 c1)))
(define-fun e339 ((c0 (_ BitVec 64)) (c1 (_ BitVec 64))) Bool (and (e335 c0 c1) (e338 c0 c1)))
(define-fun e340 ((c0 (_ BitVec 64)) (c1 (_ BitVec 64))) Bool (bvult (e56 c0 c1) (e46 c0 c1)))
(define-fun e341 ((c0 (_ BitVec 64)) (c1 (_ BitVec 64))) Bool (and (=> (e339 c0 c1) (e340 c0 c1)) (=> (e340 c0 c1) (e339 c0 c1))))
(define-fun e342 ((c0 (_ BitVec 64)) (c1 (_ BitVec 64))) Bool (or (e6 c0 c1) (e341 c0 c1)))
(define-fun e343 () Bool (forall ((c0 (_ BitVec 64)) (c1 (_ BitVec 64))) (e342 c0 c1)))
(define-fun e344 ((c0 (_ BitVec 64))) Bool (bvule (e200 c0) (e168 c0)))
(define-fun e345 ((c0 (_ BitVec 64))) Bool (or (e344 c0) (e267 c0)))
(define-fun e346 () Bool (forall ((c0 (_ BitVec 64))) (e345 c0)))
(define-fun e347 () Bool (and e315 e322 e334 e343 e346))
(define-fun e348 () Bool (and e285 e293 e296 e302 e308 e312 e347))
(define-fun e349 () Bool (not e348))
(define-fun e350 () Bool (or e273 e349))
(define-fun e351 () Bool (not e350))
(assert e351)
(check-sat)
